=obj= -23
x0                                                        1.000000
x1                                                        1.000000
x2                                                        1.000000
x3                                                        1.000000
x4                                                        1.000000
x5                                                        1.000000
x6                                                        1.000000
x7                                                        1.000000
x8                                                        1.000000
x9                                                        1.000000
x10                                                       1.000000
x11                                                       1.000000
x12                                                       1.000000
x13                                                       1.000000
x14                                                       1.000000
x15                                                       1.000000
x16                                                       1.000000
x17                                                       1.000000
x18                                                       1.000000
x19                                                       1.000000
x20                                                       1.000000
x21                                                       1.000000
x22                                                       1.000000
c0_15_14                                                  1.000000
c0_14_20                                                  1.000000
c0_21_15                                                  1.000000
c0_20_19                                                  1.000000
c0_19_21                                                  1.000000
c1_28_27                                                  1.000000
c1_27_29                                                  1.000000
c1_29_28                                                  1.000000
c2_21_4                                                   1.000000
c2_4_24                                                   1.000000
c2_22_21                                                  1.000000
c2_23_22                                                  1.000000
c2_24_23                                                  1.000000
c3_7_0                                                    1.000000
c3_0_8                                                    1.000000
c3_8_7                                                    1.000000
c4_0_27                                                   1.000000
c4_28_0                                                   1.000000
c4_27_28                                                  1.000000
c5_0_2                                                    1.000000
c5_30_0                                                   1.000000
c5_2_3                                                    1.000000
c5_3_4                                                    1.000000
c5_4_28                                                   1.000000
c5_28_29                                                  1.000000
c5_29_30                                                  1.000000
c6_7_8                                                    1.000000
c6_12_7                                                   1.000000
c6_8_9                                                    1.000000
c6_9_10                                                   1.000000
c6_10_11                                                  1.000000
c6_11_12                                                  1.000000
c7_8_0                                                    1.000000
c7_0_23                                                   1.000000
c7_9_8                                                    1.000000
c7_24_9                                                   1.000000
c7_23_24                                                  1.000000
c8_22_0                                                   1.000000
c8_0_30                                                   1.000000
c8_15_21                                                  1.000000
c8_30_15                                                  1.000000
c8_21_22                                                  1.000000
c9_1_0                                                    1.000000
c9_0_25                                                   1.000000
c9_13_1                                                   1.000000
c9_6_7                                                    1.000000
c9_26_6                                                   1.000000
c9_7_12                                                   1.000000
c9_12_13                                                  1.000000
c9_25_26                                                  1.000000
c10_10_0                                                  1.000000
c10_0_11                                                  1.000000
c10_11_10                                                 1.000000
c11_0_18                                                  1.000000
c11_25_0                                                  1.000000
c11_18_17                                                 1.000000
c11_17_25                                                 1.000000
c12_18_0                                                  1.000000
c12_0_28                                                  1.000000
c12_4_21                                                  1.000000
c12_28_4                                                  1.000000
c12_19_18                                                 1.000000
c12_21_19                                                 1.000000
c13_4_5                                                   1.000000
c13_24_4                                                  1.000000
c13_5_26                                                  1.000000
c13_10_9                                                  1.000000
c13_9_24                                                  1.000000
c13_17_10                                                 1.000000
c13_25_17                                                 1.000000
c13_26_25                                                 1.000000
c14_16_15                                                 1.000000
c14_15_30                                                 1.000000
c14_27_16                                                 1.000000
c14_29_27                                                 1.000000
c14_30_29                                                 1.000000
c15_0_10                                                  1.000000
c15_27_0                                                  1.000000
c15_10_17                                                 1.000000
c15_17_16                                                 1.000000
c15_16_27                                                 1.000000
c16_2_1                                                   1.000000
c16_1_13                                                  1.000000
c16_3_2                                                   1.000000
c16_15_3                                                  1.000000
c16_13_14                                                 1.000000
c16_14_15                                                 1.000000
c17_4_3                                                   1.000000
c17_3_15                                                  1.000000
c17_5_4                                                   1.000000
c17_6_5                                                   1.000000
c17_11_6                                                  1.000000
c17_12_11                                                 1.000000
c17_13_12                                                 1.000000
c17_14_13                                                 1.000000
c17_20_14                                                 1.000000
c17_15_16                                                 1.000000
c17_16_20                                                 1.000000
c18_0_22                                                  1.000000
c18_23_0                                                  1.000000
c18_22_23                                                 1.000000
c19_0_7                                                   1.000000
c19_11_0                                                  1.000000
c19_7_6                                                   1.000000
c19_6_11                                                  1.000000
c20_16_17                                                 1.000000
c20_20_16                                                 1.000000
c20_17_18                                                 1.000000
c20_18_19                                                 1.000000
c20_19_20                                                 1.000000
c21_5_6                                                   1.000000
c21_26_5                                                  1.000000
c21_6_26                                                  1.000000
c22_0_1                                                   1.000000
c22_2_0                                                   1.000000
c22_1_2                                                   1.000000
p0_2_1                                                    1.000000
p0_30_2                                                   1.000000
p0_11_7                                                   1.000000
p0_7_8                                                    1.000000
p0_27_10                                                  1.000000
p0_10_11                                                  1.000000
p0_25_18                                                  1.000000
p0_23_22                                                  1.000000
p0_8_23                                                   1.000000
p0_1_25                                                   1.000000
p0_28_27                                                  1.000000
p0_18_28                                                  1.000000
p0_22_30                                                  1.000000
p1_0_2_13                                                 1.000000
p2_1_0_3                                                  1.000000
p3_2_4_15                                                 1.000000
p4_5_3                                                    1.000000
p4_24_5                                                   1.000000
p4_28_21                                                  1.000000
p4_21_24                                                  1.000000
p4_3_28                                                   1.000000
p6_11_5                                                   1.000000
p6_26_7                                                   1.000000
p6_7_11                                                   1.000000
p6_5_26                                                   1.000000
p7_0_6                                                    1.000000
p7_8_0                                                    1.000000
p7_12_8                                                   1.000000
p7_6_12                                                   1.000000
p9_8_10_24                                                1.000000
p10_17_9                                                  1.000000
p10_11_0                                                  1.000000
p10_9_11                                                  1.000000
p10_0_17                                                  1.000000
p11_0_10                                                  1.000000
p11_12_6                                                  1.000000
p11_6_0                                                   1.000000
p11_10_12                                                 1.000000
p12_11_7_13                                               1.000000
p13_12_1_14                                               1.000000
p14_13_15_20                                              1.000000
p15_21_14                                                 1.000000
p15_14_3                                                  1.000000
p15_3_16                                                  1.000000
p15_30_21                                                 1.000000
p15_16_30                                                 1.000000
p16_27_15                                                 1.000000
p16_20_17                                                 1.000000
p16_15_20                                                 1.000000
p16_17_27                                                 1.000000
p17_10_16                                                 1.000000
p17_25_10                                                 1.000000
p17_16_18                                                 1.000000
p17_18_25                                                 1.000000
p19_18_20_21                                              1.000000
p20_19_16_14                                              1.000000
p21_4_19                                                  1.000000
p21_19_15                                                 1.000000
p21_22_4                                                  1.000000
p21_15_22                                                 1.000000
p22_21_0_23                                               1.000000
p24_23_9_4                                                1.000000
p26_25_6_5                                                1.000000
p27_29_16                                                 1.000000
p27_16_0                                                  1.000000
p27_0_28                                                  1.000000
p27_28_29                                                 1.000000
p28_29_27                                                 1.000000
p28_0_4                                                   1.000000
p28_27_0                                                  1.000000
p28_4_29                                                  1.000000
x3484                                                     11.000000
